; 
(set-info :status unknown)
(declare-fun var_14_0 () Int)
(declare-fun var_13_0 () Int)
(declare-fun var_12_0 () Int)
(declare-fun var_11_0 () Int)
(declare-fun var_10_0 () Int)
(declare-fun var_9_0 () Int)
(declare-fun var_8_0 () Int)
(declare-fun var_7_0 () Int)
(declare-fun var_6_0 () Int)
(declare-fun var_5_0 () Int)
(declare-fun var_4_0 () Int)
(declare-fun var_3_0 () Int)
(declare-fun var_2_0 () Int)
(declare-fun var_1_0 () Int)
(declare-fun var_0_0 () Int)
(declare-fun a_0_0_1 () Int)
(declare-fun a_0_0_0 () Int)
(declare-fun a_0_0 () Int)
(declare-fun var_3_1 () Int)
(declare-fun b_0_0_3 () Int)
(declare-fun b_0_0_2 () Int)
(declare-fun b_0_0_1 () Int)
(declare-fun b_0_0_0 () Int)
(declare-fun b_0_14 () Int)
(declare-fun a_23_0_1 () Int)
(declare-fun a_23_0_0 () Int)
(declare-fun a_23_0 () Int)
(declare-fun var_5_1 () Int)
(declare-fun b_23_0_3 () Int)
(declare-fun b_23_0_2 () Int)
(declare-fun b_23_0_1 () Int)
(declare-fun b_23_0_0 () Int)
(declare-fun b_23_4 () Int)
(declare-fun a_25_0_1 () Int)
(declare-fun a_25_0_0 () Int)
(declare-fun a_25_0 () Int)
(declare-fun var_3_2 () Int)
(declare-fun b_25_0_3 () Int)
(declare-fun b_25_0_2 () Int)
(declare-fun b_25_0_1 () Int)
(declare-fun b_25_0_0 () Int)
(declare-fun b_25_12 () Int)
(declare-fun a_12_0_1 () Int)
(declare-fun a_12_0_0 () Int)
(declare-fun a_12_0 () Int)
(declare-fun var_10_1 () Int)
(declare-fun b_12_0_3 () Int)
(declare-fun b_12_0_2 () Int)
(declare-fun b_12_0_1 () Int)
(declare-fun b_12_0_0 () Int)
(declare-fun b_12_18 () Int)
(declare-fun a_18_0_1 () Int)
(declare-fun a_18_0_0 () Int)
(declare-fun a_18_0 () Int)
(declare-fun var_6_1 () Int)
(declare-fun b_18_0_3 () Int)
(declare-fun b_18_0_2 () Int)
(declare-fun b_18_0_1 () Int)
(declare-fun b_18_0_0 () Int)
(declare-fun b_18_22 () Int)
(declare-fun a_22_0_1 () Int)
(declare-fun a_22_0_0 () Int)
(declare-fun a_22_0 () Int)
(declare-fun var_1_1 () Int)
(declare-fun b_22_0_3 () Int)
(declare-fun b_22_0_2 () Int)
(declare-fun b_22_0_1 () Int)
(declare-fun b_22_0_0 () Int)
(declare-fun b_22_10 () Int)
(declare-fun a_29_0_1 () Int)
(declare-fun a_29_0_0 () Int)
(declare-fun a_29_0 () Int)
(declare-fun var_4_1 () Int)
(assert
 (let ((?x51 (ite (= var_14_0 0) 1 0)))
 (let ((?x49 (ite (= var_13_0 0) 1 0)))
 (let ((?x47 (ite (= var_12_0 0) 1 0)))
 (let ((?x45 (ite (= var_11_0 0) 1 0)))
 (let ((?x43 (ite (= var_10_0 0) 1 0)))
 (let ((?x41 (ite (= var_9_0 0) 1 0)))
 (let ((?x39 (ite (= var_8_0 0) 1 0)))
 (let ((?x37 (ite (= var_7_0 0) 1 0)))
 (let ((?x35 (ite (= var_6_0 0) 1 0)))
 (let ((?x33 (ite (= var_5_0 0) 1 0)))
 (let ((?x31 (ite (= var_4_0 0) 1 0)))
 (let ((?x29 (ite (= var_3_0 0) 1 0)))
 (let ((?x27 (ite (= var_2_0 0) 1 0)))
 (let ((?x25 (ite (= var_1_0 0) 1 0)))
 (let ((?x23 (ite (= var_0_0 0) 1 0)))
 (let ((?x52 (+ ?x23 ?x25 ?x27 ?x29 ?x31 ?x33 ?x35 ?x37 ?x39 ?x41 ?x43 ?x45 ?x47 ?x49 ?x51)))
 (<= ?x52 7))))))))))))))))))
(assert
 (let (($x116 (= var_14_0 934)))
 (let (($x113 (= var_13_0 (- 814))))
 (let (($x110 (= var_12_0 445)))
 (let (($x107 (= var_11_0 (- 227))))
 (let (($x104 (= var_10_0 (- 349))))
 (let (($x101 (= var_9_0 74)))
 (let (($x98 (= var_8_0 843)))
 (let (($x95 (= var_7_0 (- 566))))
 (let (($x92 (= var_6_0 (- 997))))
 (let (($x89 (= var_5_0 180)))
 (let (($x86 (= var_4_0 360)))
 (let (($x83 (= var_3_0 (- 238))))
 (let (($x80 (= var_2_0 40)))
 (let (($x77 (= var_1_0 797)))
 (let (($x74 (= var_0_0 599)))
 (let (($x75 (and true $x74)))
 (let (($x78 (and $x75 $x77)))
 (let (($x81 (and $x78 $x80)))
 (let (($x84 (and $x81 $x83)))
 (let (($x87 (and $x84 $x86)))
 (let (($x90 (and $x87 $x89)))
 (let (($x93 (and $x90 $x92)))
 (let (($x96 (and $x93 $x95)))
 (let (($x99 (and $x96 $x98)))
 (let (($x102 (and $x99 $x101)))
 (let (($x105 (and $x102 $x104)))
 (let (($x108 (and $x105 $x107)))
 (let (($x111 (and $x108 $x110)))
 (let (($x114 (and $x111 $x113)))
 (and $x114 $x116)))))))))))))))))))))))))))))))
(assert
 (let (($x134 (<= var_2_0 2147483647)))
 (let (($x132 (>= var_2_0 (- 2147483648))))
 (and $x132 $x134))))
(assert
 (let (($x139 (<= var_12_0 2147483647)))
 (let (($x138 (>= var_12_0 (- 2147483648))))
 (and $x138 $x139))))
(assert
 (let (($x146 (<= a_0_0_0 1024)))
 (let (($x144 (>= a_0_0_0 (- 1024))))
 (let (($x147 (and $x144 $x146)))
 (let (($x148 (and true $x147)))
 (and $x148 (and (>= a_0_0_1 (- 1024)) (<= a_0_0_1 1024))))))))
(assert
 (let (($x155 (<= a_0_0 2147483647)))
 (let (($x154 (>= a_0_0 (- 2147483648))))
 (and $x154 $x155))))
(assert
 (and (<= (* a_0_0_0 var_2_0) 2147483647) (>= (* a_0_0_0 var_2_0) (- 2147483648))))
(assert
 (and (<= (* a_0_0_0 var_2_0) 2147483647) (>= (* a_0_0_0 var_2_0) (- 2147483648))))
(assert
 (and (<= (* a_0_0_1 var_12_0) 2147483647) (>= (* a_0_0_1 var_12_0) (- 2147483648))))
(assert
 (and (<= (+ (* a_0_0_0 var_2_0) (* a_0_0_1 var_12_0)) 2147483647) (>= (+ (* a_0_0_0 var_2_0) (* a_0_0_1 var_12_0)) (- 2147483648))))
(assert
 (let (($x154 (>= a_0_0 (- 2147483648))))
 (let (($x155 (<= a_0_0 2147483647)))
 (and $x155 $x154))))
(assert
 (let ((?x142 (* a_0_0_1 var_12_0)))
 (let ((?x137 (* a_0_0_0 var_2_0)))
 (let ((?x163 (+ ?x137 ?x142)))
 (let ((?x176 (+ ?x163 a_0_0)))
 (and (<= ?x176 2147483647) (>= ?x176 (- 2147483648))))))))
(assert
 (let ((?x142 (* a_0_0_1 var_12_0)))
 (let ((?x137 (* a_0_0_0 var_2_0)))
 (let ((?x163 (+ ?x137 ?x142)))
 (let ((?x176 (+ ?x163 a_0_0)))
 (= var_3_1 ?x176))))))
(assert
 (let ((?x195 (ite (= a_0_0 0) 1 0)))
 (let ((?x193 (ite (= a_0_0_1 0) 1 0)))
 (let ((?x189 (ite (= a_0_0_0 0) 1 0)))
 (<= (+ ?x189 ?x193 ?x195) 1)))))
(assert
 (let (($x199 (<= var_3_1 2147483647)))
 (let (($x198 (>= var_3_1 (- 2147483648))))
 (and $x198 $x199))))
(assert
 (let (($x204 (<= var_8_0 2147483647)))
 (let (($x203 (>= var_8_0 (- 2147483648))))
 (and $x203 $x204))))
(assert
 (let (($x139 (<= var_12_0 2147483647)))
 (let (($x138 (>= var_12_0 (- 2147483648))))
 (and $x138 $x139))))
(assert
 (let (($x134 (<= var_2_0 2147483647)))
 (let (($x132 (>= var_2_0 (- 2147483648))))
 (and $x132 $x134))))
(assert
 (let (($x213 (<= b_0_0_0 1024)))
 (let (($x212 (>= b_0_0_0 (- 1024))))
 (let (($x214 (and $x212 $x213)))
 (let (($x215 (and true $x214)))
 (let (($x219 (and $x215 (and (>= b_0_0_1 (- 1024)) (<= b_0_0_1 1024)))))
 (let (($x223 (and $x219 (and (>= b_0_0_2 (- 1024)) (<= b_0_0_2 1024)))))
 (and $x223 (and (>= b_0_0_3 (- 1024)) (<= b_0_0_3 1024))))))))))
(assert
 (let ((?x237 (ite (= b_0_0_3 0) 1 0)))
 (let ((?x235 (ite (= b_0_0_2 0) 1 0)))
 (let ((?x233 (ite (= b_0_0_1 0) 1 0)))
 (let ((?x231 (ite (= b_0_0_0 0) 1 0)))
 (<= (+ ?x231 ?x233 ?x235 ?x237) 2))))))
(assert
 (let (($x243 (<= b_0_14 2147483647)))
 (let (($x242 (>= b_0_14 (- 2147483648))))
 (and $x242 $x243))))
(assert
 (and (<= (* b_0_0_0 var_3_1) 2147483647) (>= (* b_0_0_0 var_3_1) (- 2147483648))))
(assert
 (and (<= (* b_0_0_0 var_3_1) 2147483647) (>= (* b_0_0_0 var_3_1) (- 2147483648))))
(assert
 (and (<= (* b_0_0_1 var_8_0) 2147483647) (>= (* b_0_0_1 var_8_0) (- 2147483648))))
(assert
 (and (<= (+ (* b_0_0_0 var_3_1) (* b_0_0_1 var_8_0)) 2147483647) (>= (+ (* b_0_0_0 var_3_1) (* b_0_0_1 var_8_0)) (- 2147483648))))
(assert
 (and (<= (* b_0_0_2 var_12_0) 2147483647) (>= (* b_0_0_2 var_12_0) (- 2147483648))))
(assert
 (let ((?x209 (* b_0_0_2 var_12_0)))
 (let ((?x207 (* b_0_0_1 var_8_0)))
 (let ((?x202 (* b_0_0_0 var_3_1)))
 (let ((?x251 (+ ?x202 ?x207)))
 (let ((?x264 (+ ?x251 ?x209)))
 (and (<= ?x264 2147483647) (>= ?x264 (- 2147483648)))))))))
(assert
 (and (<= (* b_0_0_3 var_2_0) 2147483647) (>= (* b_0_0_3 var_2_0) (- 2147483648))))
(assert
 (let ((?x211 (* b_0_0_3 var_2_0)))
 (let ((?x209 (* b_0_0_2 var_12_0)))
 (let ((?x207 (* b_0_0_1 var_8_0)))
 (let ((?x202 (* b_0_0_0 var_3_1)))
 (let ((?x251 (+ ?x202 ?x207)))
 (let ((?x264 (+ ?x251 ?x209)))
 (let ((?x277 (+ ?x264 ?x211)))
 (and (<= ?x277 2147483647) (>= ?x277 (- 2147483648)))))))))))
(assert
 (let (($x242 (>= b_0_14 (- 2147483648))))
 (let (($x243 (<= b_0_14 2147483647)))
 (and $x243 $x242))))
(assert
 (let ((?x211 (* b_0_0_3 var_2_0)))
 (let ((?x209 (* b_0_0_2 var_12_0)))
 (let ((?x207 (* b_0_0_1 var_8_0)))
 (let ((?x202 (* b_0_0_0 var_3_1)))
 (let ((?x251 (+ ?x202 ?x207)))
 (let ((?x264 (+ ?x251 ?x209)))
 (let ((?x277 (+ ?x264 ?x211)))
 (let ((?x290 (+ ?x277 b_0_14)))
 (and (<= ?x290 2147483647) (>= ?x290 (- 2147483648))))))))))))
(assert
 (let ((?x211 (* b_0_0_3 var_2_0)))
 (let ((?x209 (* b_0_0_2 var_12_0)))
 (let ((?x207 (* b_0_0_1 var_8_0)))
 (let ((?x202 (* b_0_0_0 var_3_1)))
 (let ((?x251 (+ ?x202 ?x207)))
 (let ((?x264 (+ ?x251 ?x209)))
 (let ((?x277 (+ ?x264 ?x211)))
 (let ((?x290 (+ ?x277 b_0_14)))
 (< ?x290 0))))))))))
(assert
 (let (($x304 (<= var_11_0 2147483647)))
 (let (($x303 (>= var_11_0 (- 2147483648))))
 (and $x303 $x304))))
(assert
 (let (($x309 (<= var_13_0 2147483647)))
 (let (($x308 (>= var_13_0 (- 2147483648))))
 (and $x308 $x309))))
(assert
 (let (($x314 (<= a_23_0_0 1024)))
 (let (($x313 (>= a_23_0_0 (- 1024))))
 (let (($x315 (and $x313 $x314)))
 (let (($x316 (and true $x315)))
 (and $x316 (and (>= a_23_0_1 (- 1024)) (<= a_23_0_1 1024))))))))
(assert
 (let (($x323 (<= a_23_0 2147483647)))
 (let (($x322 (>= a_23_0 (- 2147483648))))
 (and $x322 $x323))))
(assert
 (and (<= (* a_23_0_0 var_11_0) 2147483647) (>= (* a_23_0_0 var_11_0) (- 2147483648))))
(assert
 (and (<= (* a_23_0_0 var_11_0) 2147483647) (>= (* a_23_0_0 var_11_0) (- 2147483648))))
(assert
 (and (<= (* a_23_0_1 var_13_0) 2147483647) (>= (* a_23_0_1 var_13_0) (- 2147483648))))
(assert
 (and (<= (+ (* a_23_0_0 var_11_0) (* a_23_0_1 var_13_0)) 2147483647) (>= (+ (* a_23_0_0 var_11_0) (* a_23_0_1 var_13_0)) (- 2147483648))))
(assert
 (let (($x322 (>= a_23_0 (- 2147483648))))
 (let (($x323 (<= a_23_0 2147483647)))
 (and $x323 $x322))))
(assert
 (let ((?x312 (* a_23_0_1 var_13_0)))
 (let ((?x307 (* a_23_0_0 var_11_0)))
 (let ((?x331 (+ ?x307 ?x312)))
 (let ((?x344 (+ ?x331 a_23_0)))
 (and (<= ?x344 2147483647) (>= ?x344 (- 2147483648))))))))
(assert
 (let ((?x312 (* a_23_0_1 var_13_0)))
 (let ((?x307 (* a_23_0_0 var_11_0)))
 (let ((?x331 (+ ?x307 ?x312)))
 (let ((?x344 (+ ?x331 a_23_0)))
 (= var_5_1 ?x344))))))
(assert
 (let ((?x362 (ite (= a_23_0 0) 1 0)))
 (let ((?x360 (ite (= a_23_0_1 0) 1 0)))
 (let ((?x356 (ite (= a_23_0_0 0) 1 0)))
 (<= (+ ?x356 ?x360 ?x362) 1)))))
(assert
 (let (($x366 (<= var_5_1 2147483647)))
 (let (($x365 (>= var_5_1 (- 2147483648))))
 (and $x365 $x366))))
(assert
 (let (($x371 (<= var_1_0 2147483647)))
 (let (($x370 (>= var_1_0 (- 2147483648))))
 (and $x370 $x371))))
(assert
 (let (($x199 (<= var_3_1 2147483647)))
 (let (($x198 (>= var_3_1 (- 2147483648))))
 (and $x198 $x199))))
(assert
 (let (($x378 (<= var_4_0 2147483647)))
 (let (($x377 (>= var_4_0 (- 2147483648))))
 (and $x377 $x378))))
(assert
 (let (($x383 (<= b_23_0_0 1024)))
 (let (($x382 (>= b_23_0_0 (- 1024))))
 (let (($x384 (and $x382 $x383)))
 (let (($x385 (and true $x384)))
 (let (($x389 (and $x385 (and (>= b_23_0_1 (- 1024)) (<= b_23_0_1 1024)))))
 (let (($x393 (and $x389 (and (>= b_23_0_2 (- 1024)) (<= b_23_0_2 1024)))))
 (and $x393 (and (>= b_23_0_3 (- 1024)) (<= b_23_0_3 1024))))))))))
(assert
 (let ((?x407 (ite (= b_23_0_3 0) 1 0)))
 (let ((?x405 (ite (= b_23_0_2 0) 1 0)))
 (let ((?x403 (ite (= b_23_0_1 0) 1 0)))
 (let ((?x401 (ite (= b_23_0_0 0) 1 0)))
 (<= (+ ?x401 ?x403 ?x405 ?x407) 2))))))
(assert
 (let (($x412 (<= b_23_4 2147483647)))
 (let (($x411 (>= b_23_4 (- 2147483648))))
 (and $x411 $x412))))
(assert
 (and (<= (* b_23_0_0 var_5_1) 2147483647) (>= (* b_23_0_0 var_5_1) (- 2147483648))))
(assert
 (and (<= (* b_23_0_0 var_5_1) 2147483647) (>= (* b_23_0_0 var_5_1) (- 2147483648))))
(assert
 (and (<= (* b_23_0_1 var_1_0) 2147483647) (>= (* b_23_0_1 var_1_0) (- 2147483648))))
(assert
 (and (<= (+ (* b_23_0_0 var_5_1) (* b_23_0_1 var_1_0)) 2147483647) (>= (+ (* b_23_0_0 var_5_1) (* b_23_0_1 var_1_0)) (- 2147483648))))
(assert
 (and (<= (* b_23_0_2 var_3_1) 2147483647) (>= (* b_23_0_2 var_3_1) (- 2147483648))))
(assert
 (let ((?x376 (* b_23_0_2 var_3_1)))
 (let ((?x374 (* b_23_0_1 var_1_0)))
 (let ((?x369 (* b_23_0_0 var_5_1)))
 (let ((?x420 (+ ?x369 ?x374)))
 (let ((?x433 (+ ?x420 ?x376)))
 (and (<= ?x433 2147483647) (>= ?x433 (- 2147483648)))))))))
(assert
 (and (<= (* b_23_0_3 var_4_0) 2147483647) (>= (* b_23_0_3 var_4_0) (- 2147483648))))
(assert
 (let ((?x381 (* b_23_0_3 var_4_0)))
 (let ((?x376 (* b_23_0_2 var_3_1)))
 (let ((?x374 (* b_23_0_1 var_1_0)))
 (let ((?x369 (* b_23_0_0 var_5_1)))
 (let ((?x420 (+ ?x369 ?x374)))
 (let ((?x433 (+ ?x420 ?x376)))
 (let ((?x446 (+ ?x433 ?x381)))
 (and (<= ?x446 2147483647) (>= ?x446 (- 2147483648)))))))))))
(assert
 (let (($x411 (>= b_23_4 (- 2147483648))))
 (let (($x412 (<= b_23_4 2147483647)))
 (and $x412 $x411))))
(assert
 (let ((?x381 (* b_23_0_3 var_4_0)))
 (let ((?x376 (* b_23_0_2 var_3_1)))
 (let ((?x374 (* b_23_0_1 var_1_0)))
 (let ((?x369 (* b_23_0_0 var_5_1)))
 (let ((?x420 (+ ?x369 ?x374)))
 (let ((?x433 (+ ?x420 ?x376)))
 (let ((?x446 (+ ?x433 ?x381)))
 (let ((?x459 (+ ?x446 b_23_4)))
 (and (<= ?x459 2147483647) (>= ?x459 (- 2147483648))))))))))))
(assert
 (let ((?x381 (* b_23_0_3 var_4_0)))
 (let ((?x376 (* b_23_0_2 var_3_1)))
 (let ((?x374 (* b_23_0_1 var_1_0)))
 (let ((?x369 (* b_23_0_0 var_5_1)))
 (let ((?x420 (+ ?x369 ?x374)))
 (let ((?x433 (+ ?x420 ?x376)))
 (let ((?x446 (+ ?x433 ?x381)))
 (let ((?x459 (+ ?x446 b_23_4)))
 (< ?x459 0))))))))))
(assert
 (let (($x473 (<= var_7_0 2147483647)))
 (let (($x472 (>= var_7_0 (- 2147483648))))
 (and $x472 $x473))))
(assert
 (let (($x304 (<= var_11_0 2147483647)))
 (let (($x303 (>= var_11_0 (- 2147483648))))
 (and $x303 $x304))))
(assert
 (let (($x480 (<= a_25_0_0 1024)))
 (let (($x479 (>= a_25_0_0 (- 1024))))
 (let (($x481 (and $x479 $x480)))
 (let (($x482 (and true $x481)))
 (and $x482 (and (>= a_25_0_1 (- 1024)) (<= a_25_0_1 1024))))))))
(assert
 (let (($x489 (<= a_25_0 2147483647)))
 (let (($x488 (>= a_25_0 (- 2147483648))))
 (and $x488 $x489))))
(assert
 (and (<= (* a_25_0_0 var_7_0) 2147483647) (>= (* a_25_0_0 var_7_0) (- 2147483648))))
(assert
 (and (<= (* a_25_0_0 var_7_0) 2147483647) (>= (* a_25_0_0 var_7_0) (- 2147483648))))
(assert
 (and (<= (* a_25_0_1 var_11_0) 2147483647) (>= (* a_25_0_1 var_11_0) (- 2147483648))))
(assert
 (and (<= (+ (* a_25_0_0 var_7_0) (* a_25_0_1 var_11_0)) 2147483647) (>= (+ (* a_25_0_0 var_7_0) (* a_25_0_1 var_11_0)) (- 2147483648))))
(assert
 (let (($x488 (>= a_25_0 (- 2147483648))))
 (let (($x489 (<= a_25_0 2147483647)))
 (and $x489 $x488))))
(assert
 (let ((?x478 (* a_25_0_1 var_11_0)))
 (let ((?x476 (* a_25_0_0 var_7_0)))
 (let ((?x497 (+ ?x476 ?x478)))
 (let ((?x510 (+ ?x497 a_25_0)))
 (and (<= ?x510 2147483647) (>= ?x510 (- 2147483648))))))))
(assert
 (let ((?x478 (* a_25_0_1 var_11_0)))
 (let ((?x476 (* a_25_0_0 var_7_0)))
 (let ((?x497 (+ ?x476 ?x478)))
 (let ((?x510 (+ ?x497 a_25_0)))
 (= var_3_2 ?x510))))))
(assert
 (let ((?x528 (ite (= a_25_0 0) 1 0)))
 (let ((?x526 (ite (= a_25_0_1 0) 1 0)))
 (let ((?x522 (ite (= a_25_0_0 0) 1 0)))
 (<= (+ ?x522 ?x526 ?x528) 1)))))
(assert
 (let (($x532 (<= var_3_2 2147483647)))
 (let (($x531 (>= var_3_2 (- 2147483648))))
 (and $x531 $x532))))
(assert
 (let (($x537 (<= var_0_0 2147483647)))
 (let (($x536 (>= var_0_0 (- 2147483648))))
 (and $x536 $x537))))
(assert
 (let (($x134 (<= var_2_0 2147483647)))
 (let (($x132 (>= var_2_0 (- 2147483648))))
 (and $x132 $x134))))
(assert
 (let (($x366 (<= var_5_1 2147483647)))
 (let (($x365 (>= var_5_1 (- 2147483648))))
 (and $x365 $x366))))
(assert
 (let (($x546 (<= b_25_0_0 1024)))
 (let (($x545 (>= b_25_0_0 (- 1024))))
 (let (($x547 (and $x545 $x546)))
 (let (($x548 (and true $x547)))
 (let (($x552 (and $x548 (and (>= b_25_0_1 (- 1024)) (<= b_25_0_1 1024)))))
 (let (($x556 (and $x552 (and (>= b_25_0_2 (- 1024)) (<= b_25_0_2 1024)))))
 (and $x556 (and (>= b_25_0_3 (- 1024)) (<= b_25_0_3 1024))))))))))
(assert
 (let ((?x570 (ite (= b_25_0_3 0) 1 0)))
 (let ((?x568 (ite (= b_25_0_2 0) 1 0)))
 (let ((?x566 (ite (= b_25_0_1 0) 1 0)))
 (let ((?x564 (ite (= b_25_0_0 0) 1 0)))
 (<= (+ ?x564 ?x566 ?x568 ?x570) 2))))))
(assert
 (let (($x575 (<= b_25_12 2147483647)))
 (let (($x574 (>= b_25_12 (- 2147483648))))
 (and $x574 $x575))))
(assert
 (and (<= (* b_25_0_0 var_3_2) 2147483647) (>= (* b_25_0_0 var_3_2) (- 2147483648))))
(assert
 (and (<= (* b_25_0_0 var_3_2) 2147483647) (>= (* b_25_0_0 var_3_2) (- 2147483648))))
(assert
 (and (<= (* b_25_0_1 var_0_0) 2147483647) (>= (* b_25_0_1 var_0_0) (- 2147483648))))
(assert
 (and (<= (+ (* b_25_0_0 var_3_2) (* b_25_0_1 var_0_0)) 2147483647) (>= (+ (* b_25_0_0 var_3_2) (* b_25_0_1 var_0_0)) (- 2147483648))))
(assert
 (and (<= (* b_25_0_2 var_2_0) 2147483647) (>= (* b_25_0_2 var_2_0) (- 2147483648))))
(assert
 (let ((?x542 (* b_25_0_2 var_2_0)))
 (let ((?x540 (* b_25_0_1 var_0_0)))
 (let ((?x535 (* b_25_0_0 var_3_2)))
 (let ((?x583 (+ ?x535 ?x540)))
 (let ((?x596 (+ ?x583 ?x542)))
 (and (<= ?x596 2147483647) (>= ?x596 (- 2147483648)))))))))
(assert
 (and (<= (* b_25_0_3 var_5_1) 2147483647) (>= (* b_25_0_3 var_5_1) (- 2147483648))))
(assert
 (let ((?x544 (* b_25_0_3 var_5_1)))
 (let ((?x542 (* b_25_0_2 var_2_0)))
 (let ((?x540 (* b_25_0_1 var_0_0)))
 (let ((?x535 (* b_25_0_0 var_3_2)))
 (let ((?x583 (+ ?x535 ?x540)))
 (let ((?x596 (+ ?x583 ?x542)))
 (let ((?x609 (+ ?x596 ?x544)))
 (and (<= ?x609 2147483647) (>= ?x609 (- 2147483648)))))))))))
(assert
 (let (($x574 (>= b_25_12 (- 2147483648))))
 (let (($x575 (<= b_25_12 2147483647)))
 (and $x575 $x574))))
(assert
 (let ((?x544 (* b_25_0_3 var_5_1)))
 (let ((?x542 (* b_25_0_2 var_2_0)))
 (let ((?x540 (* b_25_0_1 var_0_0)))
 (let ((?x535 (* b_25_0_0 var_3_2)))
 (let ((?x583 (+ ?x535 ?x540)))
 (let ((?x596 (+ ?x583 ?x542)))
 (let ((?x609 (+ ?x596 ?x544)))
 (let ((?x622 (+ ?x609 b_25_12)))
 (and (<= ?x622 2147483647) (>= ?x622 (- 2147483648))))))))))))
(assert
 (let ((?x544 (* b_25_0_3 var_5_1)))
 (let ((?x542 (* b_25_0_2 var_2_0)))
 (let ((?x540 (* b_25_0_1 var_0_0)))
 (let ((?x535 (* b_25_0_0 var_3_2)))
 (let ((?x583 (+ ?x535 ?x540)))
 (let ((?x596 (+ ?x583 ?x542)))
 (let ((?x609 (+ ?x596 ?x544)))
 (let ((?x622 (+ ?x609 b_25_12)))
 (>= ?x622 0))))))))))
(assert
 (let (($x473 (<= var_7_0 2147483647)))
 (let (($x472 (>= var_7_0 (- 2147483648))))
 (and $x472 $x473))))
(assert
 (let (($x371 (<= var_1_0 2147483647)))
 (let (($x370 (>= var_1_0 (- 2147483648))))
 (and $x370 $x371))))
(assert
 (let (($x637 (<= a_12_0_0 1024)))
 (let (($x636 (>= a_12_0_0 (- 1024))))
 (let (($x638 (and $x636 $x637)))
 (let (($x639 (and true $x638)))
 (and $x639 (and (>= a_12_0_1 (- 1024)) (<= a_12_0_1 1024))))))))
(assert
 (let (($x646 (<= a_12_0 2147483647)))
 (let (($x645 (>= a_12_0 (- 2147483648))))
 (and $x645 $x646))))
(assert
 (and (<= (* a_12_0_0 var_7_0) 2147483647) (>= (* a_12_0_0 var_7_0) (- 2147483648))))
(assert
 (and (<= (* a_12_0_0 var_7_0) 2147483647) (>= (* a_12_0_0 var_7_0) (- 2147483648))))
(assert
 (and (<= (* a_12_0_1 var_1_0) 2147483647) (>= (* a_12_0_1 var_1_0) (- 2147483648))))
(assert
 (and (<= (+ (* a_12_0_0 var_7_0) (* a_12_0_1 var_1_0)) 2147483647) (>= (+ (* a_12_0_0 var_7_0) (* a_12_0_1 var_1_0)) (- 2147483648))))
(assert
 (let (($x645 (>= a_12_0 (- 2147483648))))
 (let (($x646 (<= a_12_0 2147483647)))
 (and $x646 $x645))))
(assert
 (let ((?x635 (* a_12_0_1 var_1_0)))
 (let ((?x633 (* a_12_0_0 var_7_0)))
 (let ((?x654 (+ ?x633 ?x635)))
 (let ((?x667 (+ ?x654 a_12_0)))
 (and (<= ?x667 2147483647) (>= ?x667 (- 2147483648))))))))
(assert
 (let ((?x635 (* a_12_0_1 var_1_0)))
 (let ((?x633 (* a_12_0_0 var_7_0)))
 (let ((?x654 (+ ?x633 ?x635)))
 (let ((?x667 (+ ?x654 a_12_0)))
 (= var_10_1 ?x667))))))
(assert
 (let ((?x685 (ite (= a_12_0 0) 1 0)))
 (let ((?x683 (ite (= a_12_0_1 0) 1 0)))
 (let ((?x679 (ite (= a_12_0_0 0) 1 0)))
 (<= (+ ?x679 ?x683 ?x685) 1)))))
(assert
 (let (($x689 (<= var_10_1 2147483647)))
 (let (($x688 (>= var_10_1 (- 2147483648))))
 (and $x688 $x689))))
(assert
 (let (($x371 (<= var_1_0 2147483647)))
 (let (($x370 (>= var_1_0 (- 2147483648))))
 (and $x370 $x371))))
(assert
 (let (($x366 (<= var_5_1 2147483647)))
 (let (($x365 (>= var_5_1 (- 2147483648))))
 (and $x365 $x366))))
(assert
 (let (($x532 (<= var_3_2 2147483647)))
 (let (($x531 (>= var_3_2 (- 2147483648))))
 (and $x531 $x532))))
(assert
 (let (($x700 (<= b_12_0_0 1024)))
 (let (($x699 (>= b_12_0_0 (- 1024))))
 (let (($x701 (and $x699 $x700)))
 (let (($x702 (and true $x701)))
 (let (($x706 (and $x702 (and (>= b_12_0_1 (- 1024)) (<= b_12_0_1 1024)))))
 (let (($x710 (and $x706 (and (>= b_12_0_2 (- 1024)) (<= b_12_0_2 1024)))))
 (and $x710 (and (>= b_12_0_3 (- 1024)) (<= b_12_0_3 1024))))))))))
(assert
 (let ((?x724 (ite (= b_12_0_3 0) 1 0)))
 (let ((?x722 (ite (= b_12_0_2 0) 1 0)))
 (let ((?x720 (ite (= b_12_0_1 0) 1 0)))
 (let ((?x718 (ite (= b_12_0_0 0) 1 0)))
 (<= (+ ?x718 ?x720 ?x722 ?x724) 2))))))
(assert
 (let (($x729 (<= b_12_18 2147483647)))
 (let (($x728 (>= b_12_18 (- 2147483648))))
 (and $x728 $x729))))
(assert
 (and (<= (* b_12_0_0 var_10_1) 2147483647) (>= (* b_12_0_0 var_10_1) (- 2147483648))))
(assert
 (and (<= (* b_12_0_0 var_10_1) 2147483647) (>= (* b_12_0_0 var_10_1) (- 2147483648))))
(assert
 (and (<= (* b_12_0_1 var_1_0) 2147483647) (>= (* b_12_0_1 var_1_0) (- 2147483648))))
(assert
 (and (<= (+ (* b_12_0_0 var_10_1) (* b_12_0_1 var_1_0)) 2147483647) (>= (+ (* b_12_0_0 var_10_1) (* b_12_0_1 var_1_0)) (- 2147483648))))
(assert
 (and (<= (* b_12_0_2 var_5_1) 2147483647) (>= (* b_12_0_2 var_5_1) (- 2147483648))))
(assert
 (let ((?x696 (* b_12_0_2 var_5_1)))
 (let ((?x694 (* b_12_0_1 var_1_0)))
 (let ((?x692 (* b_12_0_0 var_10_1)))
 (let ((?x737 (+ ?x692 ?x694)))
 (let ((?x750 (+ ?x737 ?x696)))
 (and (<= ?x750 2147483647) (>= ?x750 (- 2147483648)))))))))
(assert
 (and (<= (* b_12_0_3 var_3_2) 2147483647) (>= (* b_12_0_3 var_3_2) (- 2147483648))))
(assert
 (let ((?x698 (* b_12_0_3 var_3_2)))
 (let ((?x696 (* b_12_0_2 var_5_1)))
 (let ((?x694 (* b_12_0_1 var_1_0)))
 (let ((?x692 (* b_12_0_0 var_10_1)))
 (let ((?x737 (+ ?x692 ?x694)))
 (let ((?x750 (+ ?x737 ?x696)))
 (let ((?x763 (+ ?x750 ?x698)))
 (and (<= ?x763 2147483647) (>= ?x763 (- 2147483648)))))))))))
(assert
 (let (($x728 (>= b_12_18 (- 2147483648))))
 (let (($x729 (<= b_12_18 2147483647)))
 (and $x729 $x728))))
(assert
 (let ((?x698 (* b_12_0_3 var_3_2)))
 (let ((?x696 (* b_12_0_2 var_5_1)))
 (let ((?x694 (* b_12_0_1 var_1_0)))
 (let ((?x692 (* b_12_0_0 var_10_1)))
 (let ((?x737 (+ ?x692 ?x694)))
 (let ((?x750 (+ ?x737 ?x696)))
 (let ((?x763 (+ ?x750 ?x698)))
 (let ((?x776 (+ ?x763 b_12_18)))
 (and (<= ?x776 2147483647) (>= ?x776 (- 2147483648))))))))))))
(assert
 (let ((?x698 (* b_12_0_3 var_3_2)))
 (let ((?x696 (* b_12_0_2 var_5_1)))
 (let ((?x694 (* b_12_0_1 var_1_0)))
 (let ((?x692 (* b_12_0_0 var_10_1)))
 (let ((?x737 (+ ?x692 ?x694)))
 (let ((?x750 (+ ?x737 ?x696)))
 (let ((?x763 (+ ?x750 ?x698)))
 (let ((?x776 (+ ?x763 b_12_18)))
 (>= ?x776 0))))))))))
(assert
 (let (($x139 (<= var_12_0 2147483647)))
 (let (($x138 (>= var_12_0 (- 2147483648))))
 (and $x138 $x139))))
(assert
 (let (($x789 (<= var_14_0 2147483647)))
 (let (($x788 (>= var_14_0 (- 2147483648))))
 (and $x788 $x789))))
(assert
 (let (($x794 (<= a_18_0_0 1024)))
 (let (($x793 (>= a_18_0_0 (- 1024))))
 (let (($x795 (and $x793 $x794)))
 (let (($x796 (and true $x795)))
 (and $x796 (and (>= a_18_0_1 (- 1024)) (<= a_18_0_1 1024))))))))
(assert
 (let (($x803 (<= a_18_0 2147483647)))
 (let (($x802 (>= a_18_0 (- 2147483648))))
 (and $x802 $x803))))
(assert
 (and (<= (* a_18_0_0 var_12_0) 2147483647) (>= (* a_18_0_0 var_12_0) (- 2147483648))))
(assert
 (and (<= (* a_18_0_0 var_12_0) 2147483647) (>= (* a_18_0_0 var_12_0) (- 2147483648))))
(assert
 (and (<= (* a_18_0_1 var_14_0) 2147483647) (>= (* a_18_0_1 var_14_0) (- 2147483648))))
(assert
 (and (<= (+ (* a_18_0_0 var_12_0) (* a_18_0_1 var_14_0)) 2147483647) (>= (+ (* a_18_0_0 var_12_0) (* a_18_0_1 var_14_0)) (- 2147483648))))
(assert
 (let (($x802 (>= a_18_0 (- 2147483648))))
 (let (($x803 (<= a_18_0 2147483647)))
 (and $x803 $x802))))
(assert
 (let ((?x792 (* a_18_0_1 var_14_0)))
 (let ((?x787 (* a_18_0_0 var_12_0)))
 (let ((?x811 (+ ?x787 ?x792)))
 (let ((?x824 (+ ?x811 a_18_0)))
 (and (<= ?x824 2147483647) (>= ?x824 (- 2147483648))))))))
(assert
 (let ((?x792 (* a_18_0_1 var_14_0)))
 (let ((?x787 (* a_18_0_0 var_12_0)))
 (let ((?x811 (+ ?x787 ?x792)))
 (let ((?x824 (+ ?x811 a_18_0)))
 (= var_6_1 ?x824))))))
(assert
 (let ((?x842 (ite (= a_18_0 0) 1 0)))
 (let ((?x840 (ite (= a_18_0_1 0) 1 0)))
 (let ((?x836 (ite (= a_18_0_0 0) 1 0)))
 (<= (+ ?x836 ?x840 ?x842) 1)))))
(assert
 (let (($x846 (<= var_6_1 2147483647)))
 (let (($x845 (>= var_6_1 (- 2147483648))))
 (and $x845 $x846))))
(assert
 (let (($x309 (<= var_13_0 2147483647)))
 (let (($x308 (>= var_13_0 (- 2147483648))))
 (and $x308 $x309))))
(assert
 (let (($x139 (<= var_12_0 2147483647)))
 (let (($x138 (>= var_12_0 (- 2147483648))))
 (and $x138 $x139))))
(assert
 (let (($x532 (<= var_3_2 2147483647)))
 (let (($x531 (>= var_3_2 (- 2147483648))))
 (and $x531 $x532))))
(assert
 (let (($x857 (<= b_18_0_0 1024)))
 (let (($x856 (>= b_18_0_0 (- 1024))))
 (let (($x858 (and $x856 $x857)))
 (let (($x859 (and true $x858)))
 (let (($x863 (and $x859 (and (>= b_18_0_1 (- 1024)) (<= b_18_0_1 1024)))))
 (let (($x867 (and $x863 (and (>= b_18_0_2 (- 1024)) (<= b_18_0_2 1024)))))
 (and $x867 (and (>= b_18_0_3 (- 1024)) (<= b_18_0_3 1024))))))))))
(assert
 (let ((?x881 (ite (= b_18_0_3 0) 1 0)))
 (let ((?x879 (ite (= b_18_0_2 0) 1 0)))
 (let ((?x877 (ite (= b_18_0_1 0) 1 0)))
 (let ((?x875 (ite (= b_18_0_0 0) 1 0)))
 (<= (+ ?x875 ?x877 ?x879 ?x881) 2))))))
(assert
 (let (($x886 (<= b_18_22 2147483647)))
 (let (($x885 (>= b_18_22 (- 2147483648))))
 (and $x885 $x886))))
(assert
 (and (<= (* b_18_0_0 var_6_1) 2147483647) (>= (* b_18_0_0 var_6_1) (- 2147483648))))
(assert
 (and (<= (* b_18_0_0 var_6_1) 2147483647) (>= (* b_18_0_0 var_6_1) (- 2147483648))))
(assert
 (and (<= (* b_18_0_1 var_13_0) 2147483647) (>= (* b_18_0_1 var_13_0) (- 2147483648))))
(assert
 (and (<= (+ (* b_18_0_0 var_6_1) (* b_18_0_1 var_13_0)) 2147483647) (>= (+ (* b_18_0_0 var_6_1) (* b_18_0_1 var_13_0)) (- 2147483648))))
(assert
 (and (<= (* b_18_0_2 var_12_0) 2147483647) (>= (* b_18_0_2 var_12_0) (- 2147483648))))
(assert
 (let ((?x853 (* b_18_0_2 var_12_0)))
 (let ((?x851 (* b_18_0_1 var_13_0)))
 (let ((?x849 (* b_18_0_0 var_6_1)))
 (let ((?x894 (+ ?x849 ?x851)))
 (let ((?x907 (+ ?x894 ?x853)))
 (and (<= ?x907 2147483647) (>= ?x907 (- 2147483648)))))))))
(assert
 (and (<= (* b_18_0_3 var_3_2) 2147483647) (>= (* b_18_0_3 var_3_2) (- 2147483648))))
(assert
 (let ((?x855 (* b_18_0_3 var_3_2)))
 (let ((?x853 (* b_18_0_2 var_12_0)))
 (let ((?x851 (* b_18_0_1 var_13_0)))
 (let ((?x849 (* b_18_0_0 var_6_1)))
 (let ((?x894 (+ ?x849 ?x851)))
 (let ((?x907 (+ ?x894 ?x853)))
 (let ((?x920 (+ ?x907 ?x855)))
 (and (<= ?x920 2147483647) (>= ?x920 (- 2147483648)))))))))))
(assert
 (let (($x885 (>= b_18_22 (- 2147483648))))
 (let (($x886 (<= b_18_22 2147483647)))
 (and $x886 $x885))))
(assert
 (let ((?x855 (* b_18_0_3 var_3_2)))
 (let ((?x853 (* b_18_0_2 var_12_0)))
 (let ((?x851 (* b_18_0_1 var_13_0)))
 (let ((?x849 (* b_18_0_0 var_6_1)))
 (let ((?x894 (+ ?x849 ?x851)))
 (let ((?x907 (+ ?x894 ?x853)))
 (let ((?x920 (+ ?x907 ?x855)))
 (let ((?x933 (+ ?x920 b_18_22)))
 (and (<= ?x933 2147483647) (>= ?x933 (- 2147483648))))))))))))
(assert
 (let ((?x855 (* b_18_0_3 var_3_2)))
 (let ((?x853 (* b_18_0_2 var_12_0)))
 (let ((?x851 (* b_18_0_1 var_13_0)))
 (let ((?x849 (* b_18_0_0 var_6_1)))
 (let ((?x894 (+ ?x849 ?x851)))
 (let ((?x907 (+ ?x894 ?x853)))
 (let ((?x920 (+ ?x907 ?x855)))
 (let ((?x933 (+ ?x920 b_18_22)))
 (>= ?x933 0))))))))))
(assert
 (let (($x689 (<= var_10_1 2147483647)))
 (let (($x688 (>= var_10_1 (- 2147483648))))
 (and $x688 $x689))))
(assert
 (let (($x532 (<= var_3_2 2147483647)))
 (let (($x531 (>= var_3_2 (- 2147483648))))
 (and $x531 $x532))))
(assert
 (let (($x948 (<= a_22_0_0 1024)))
 (let (($x947 (>= a_22_0_0 (- 1024))))
 (let (($x949 (and $x947 $x948)))
 (let (($x950 (and true $x949)))
 (and $x950 (and (>= a_22_0_1 (- 1024)) (<= a_22_0_1 1024))))))))
(assert
 (let (($x957 (<= a_22_0 2147483647)))
 (let (($x956 (>= a_22_0 (- 2147483648))))
 (and $x956 $x957))))
(assert
 (and (<= (* a_22_0_0 var_10_1) 2147483647) (>= (* a_22_0_0 var_10_1) (- 2147483648))))
(assert
 (and (<= (* a_22_0_0 var_10_1) 2147483647) (>= (* a_22_0_0 var_10_1) (- 2147483648))))
(assert
 (and (<= (* a_22_0_1 var_3_2) 2147483647) (>= (* a_22_0_1 var_3_2) (- 2147483648))))
(assert
 (and (<= (+ (* a_22_0_0 var_10_1) (* a_22_0_1 var_3_2)) 2147483647) (>= (+ (* a_22_0_0 var_10_1) (* a_22_0_1 var_3_2)) (- 2147483648))))
(assert
 (let (($x956 (>= a_22_0 (- 2147483648))))
 (let (($x957 (<= a_22_0 2147483647)))
 (and $x957 $x956))))
(assert
 (let ((?x946 (* a_22_0_1 var_3_2)))
 (let ((?x944 (* a_22_0_0 var_10_1)))
 (let ((?x965 (+ ?x944 ?x946)))
 (let ((?x978 (+ ?x965 a_22_0)))
 (and (<= ?x978 2147483647) (>= ?x978 (- 2147483648))))))))
(assert
 (let ((?x946 (* a_22_0_1 var_3_2)))
 (let ((?x944 (* a_22_0_0 var_10_1)))
 (let ((?x965 (+ ?x944 ?x946)))
 (let ((?x978 (+ ?x965 a_22_0)))
 (= var_1_1 ?x978))))))
(assert
 (let ((?x996 (ite (= a_22_0 0) 1 0)))
 (let ((?x994 (ite (= a_22_0_1 0) 1 0)))
 (let ((?x990 (ite (= a_22_0_0 0) 1 0)))
 (<= (+ ?x990 ?x994 ?x996) 1)))))
(assert
 (let (($x1000 (<= var_1_1 2147483647)))
 (let (($x999 (>= var_1_1 (- 2147483648))))
 (and $x999 $x1000))))
(assert
 (let (($x304 (<= var_11_0 2147483647)))
 (let (($x303 (>= var_11_0 (- 2147483648))))
 (and $x303 $x304))))
(assert
 (let (($x309 (<= var_13_0 2147483647)))
 (let (($x308 (>= var_13_0 (- 2147483648))))
 (and $x308 $x309))))
(assert
 (let (($x134 (<= var_2_0 2147483647)))
 (let (($x132 (>= var_2_0 (- 2147483648))))
 (and $x132 $x134))))
(assert
 (let (($x1011 (<= b_22_0_0 1024)))
 (let (($x1010 (>= b_22_0_0 (- 1024))))
 (let (($x1012 (and $x1010 $x1011)))
 (let (($x1013 (and true $x1012)))
 (let (($x1017 (and $x1013 (and (>= b_22_0_1 (- 1024)) (<= b_22_0_1 1024)))))
 (let (($x1021 (and $x1017 (and (>= b_22_0_2 (- 1024)) (<= b_22_0_2 1024)))))
 (and $x1021 (and (>= b_22_0_3 (- 1024)) (<= b_22_0_3 1024))))))))))
(assert
 (let ((?x1035 (ite (= b_22_0_3 0) 1 0)))
 (let ((?x1033 (ite (= b_22_0_2 0) 1 0)))
 (let ((?x1031 (ite (= b_22_0_1 0) 1 0)))
 (let ((?x1029 (ite (= b_22_0_0 0) 1 0)))
 (<= (+ ?x1029 ?x1031 ?x1033 ?x1035) 2))))))
(assert
 (let (($x1040 (<= b_22_10 2147483647)))
 (let (($x1039 (>= b_22_10 (- 2147483648))))
 (and $x1039 $x1040))))
(assert
 (and (<= (* b_22_0_0 var_1_1) 2147483647) (>= (* b_22_0_0 var_1_1) (- 2147483648))))
(assert
 (and (<= (* b_22_0_0 var_1_1) 2147483647) (>= (* b_22_0_0 var_1_1) (- 2147483648))))
(assert
 (and (<= (* b_22_0_1 var_11_0) 2147483647) (>= (* b_22_0_1 var_11_0) (- 2147483648))))
(assert
 (and (<= (+ (* b_22_0_0 var_1_1) (* b_22_0_1 var_11_0)) 2147483647) (>= (+ (* b_22_0_0 var_1_1) (* b_22_0_1 var_11_0)) (- 2147483648))))
(assert
 (and (<= (* b_22_0_2 var_13_0) 2147483647) (>= (* b_22_0_2 var_13_0) (- 2147483648))))
(assert
 (let ((?x1007 (* b_22_0_2 var_13_0)))
 (let ((?x1005 (* b_22_0_1 var_11_0)))
 (let ((?x1003 (* b_22_0_0 var_1_1)))
 (let ((?x1048 (+ ?x1003 ?x1005)))
 (let ((?x1061 (+ ?x1048 ?x1007)))
 (and (<= ?x1061 2147483647) (>= ?x1061 (- 2147483648)))))))))
(assert
 (and (<= (* b_22_0_3 var_2_0) 2147483647) (>= (* b_22_0_3 var_2_0) (- 2147483648))))
(assert
 (let ((?x1009 (* b_22_0_3 var_2_0)))
 (let ((?x1007 (* b_22_0_2 var_13_0)))
 (let ((?x1005 (* b_22_0_1 var_11_0)))
 (let ((?x1003 (* b_22_0_0 var_1_1)))
 (let ((?x1048 (+ ?x1003 ?x1005)))
 (let ((?x1061 (+ ?x1048 ?x1007)))
 (let ((?x1074 (+ ?x1061 ?x1009)))
 (and (<= ?x1074 2147483647) (>= ?x1074 (- 2147483648)))))))))))
(assert
 (let (($x1039 (>= b_22_10 (- 2147483648))))
 (let (($x1040 (<= b_22_10 2147483647)))
 (and $x1040 $x1039))))
(assert
 (let ((?x1009 (* b_22_0_3 var_2_0)))
 (let ((?x1007 (* b_22_0_2 var_13_0)))
 (let ((?x1005 (* b_22_0_1 var_11_0)))
 (let ((?x1003 (* b_22_0_0 var_1_1)))
 (let ((?x1048 (+ ?x1003 ?x1005)))
 (let ((?x1061 (+ ?x1048 ?x1007)))
 (let ((?x1074 (+ ?x1061 ?x1009)))
 (let ((?x1087 (+ ?x1074 b_22_10)))
 (and (<= ?x1087 2147483647) (>= ?x1087 (- 2147483648))))))))))))
(assert
 (let ((?x1009 (* b_22_0_3 var_2_0)))
 (let ((?x1007 (* b_22_0_2 var_13_0)))
 (let ((?x1005 (* b_22_0_1 var_11_0)))
 (let ((?x1003 (* b_22_0_0 var_1_1)))
 (let ((?x1048 (+ ?x1003 ?x1005)))
 (let ((?x1061 (+ ?x1048 ?x1007)))
 (let ((?x1074 (+ ?x1061 ?x1009)))
 (let ((?x1087 (+ ?x1074 b_22_10)))
 (< ?x1087 0))))))))))
(assert
 (let (($x134 (<= var_2_0 2147483647)))
 (let (($x132 (>= var_2_0 (- 2147483648))))
 (and $x132 $x134))))
(assert
 (let (($x309 (<= var_13_0 2147483647)))
 (let (($x308 (>= var_13_0 (- 2147483648))))
 (and $x308 $x309))))
(assert
 (let (($x1105 (<= a_29_0_0 1024)))
 (let (($x1104 (>= a_29_0_0 (- 1024))))
 (let (($x1106 (and $x1104 $x1105)))
 (let (($x1107 (and true $x1106)))
 (and $x1107 (and (>= a_29_0_1 (- 1024)) (<= a_29_0_1 1024))))))))
(assert
 (let (($x1114 (<= a_29_0 2147483647)))
 (let (($x1113 (>= a_29_0 (- 2147483648))))
 (and $x1113 $x1114))))
(assert
 (and (<= (* a_29_0_0 var_2_0) 2147483647) (>= (* a_29_0_0 var_2_0) (- 2147483648))))
(assert
 (and (<= (* a_29_0_0 var_2_0) 2147483647) (>= (* a_29_0_0 var_2_0) (- 2147483648))))
(assert
 (and (<= (* a_29_0_1 var_13_0) 2147483647) (>= (* a_29_0_1 var_13_0) (- 2147483648))))
(assert
 (and (<= (+ (* a_29_0_0 var_2_0) (* a_29_0_1 var_13_0)) 2147483647) (>= (+ (* a_29_0_0 var_2_0) (* a_29_0_1 var_13_0)) (- 2147483648))))
(assert
 (let (($x1113 (>= a_29_0 (- 2147483648))))
 (let (($x1114 (<= a_29_0 2147483647)))
 (and $x1114 $x1113))))
(assert
 (let ((?x1103 (* a_29_0_1 var_13_0)))
 (let ((?x1101 (* a_29_0_0 var_2_0)))
 (let ((?x1122 (+ ?x1101 ?x1103)))
 (let ((?x1135 (+ ?x1122 a_29_0)))
 (and (<= ?x1135 2147483647) (>= ?x1135 (- 2147483648))))))))
(assert
 (let ((?x1103 (* a_29_0_1 var_13_0)))
 (let ((?x1101 (* a_29_0_0 var_2_0)))
 (let ((?x1122 (+ ?x1101 ?x1103)))
 (let ((?x1135 (+ ?x1122 a_29_0)))
 (= var_4_1 ?x1135))))))
(assert
 (let ((?x1153 (ite (= a_29_0 0) 1 0)))
 (let ((?x1151 (ite (= a_29_0_1 0) 1 0)))
 (let ((?x1147 (ite (= a_29_0_0 0) 1 0)))
 (<= (+ ?x1147 ?x1151 ?x1153) 1)))))
(check-sat)
